solving instance mcnd nodes c43 3 6 cubic
presolving:
(round 1, fast)       294 del vars, 294 del conss, 0 add conss, 500 chg bounds, 0 chg sides, 0 chg coeffs, 0 upgd conss, 0 impls, 0 clqs
(round 2, exhaustive) 294 del vars, 588 del conss, 0 add conss, 500 chg bounds, 0 chg sides, 480 chg coeffs, 0 upgd conss, 0 impls, 0 clqs
(round 3, exhaustive) 294 del vars, 588 del conss, 0 add conss, 500 chg bounds, 0 chg sides, 480 chg coeffs, 11780 upgd conss, 0 impls, 0 clqs
   (0.3s) probing: 71/314 (22.6%) - 19 fixings, 0 aggregations, 851 implications, 1 bound changes
   (0.3s) probing aborted: 50/50 successive totally useless probings
(round 4, exhaustive) 313 del vars, 588 del conss, 0 add conss, 501 chg bounds, 0 chg sides, 0 chg coeffs, 11780 upgd conss, 12631 impls, 0 clqs
(round 5, fast)       313 del vars, 607 del conss, 0 add conss, 520 chg bounds, 0 chg sides, 0 chg coeffs, 11780 upgd conss, 12631 impls, 0 clqs
   (0.4s) probing: 76/314 (24.2%) - 19 fixings, 0 aggregations, 851 implications, 1 bound changes
   (0.4s) probing aborted: 50/50 successive totally useless probings
   (0.4s) symmetry computation started: requiring (bin +, int +, cont +), (fixed: bin -, int -, cont -)
   (0.4s) no symmetry present (symcode time: 0.03)
presolving (6 rounds: 6 fast, 4 medium, 4 exhaustive):
 313 deleted vars, 607 deleted constraints, 0 added constraints, 520 tightened bounds, 0 added holes, 0 changed sides, 0 changed coefficients
 12631 implications, 0 cliques
presolved problem has 12095 variables (295 bin, 0 int, 0 impl, 11800 cont) and 12895 constraints
  11761 constraints of type <varbound>
   1114 constraints of type <linear>
     20 constraints of type <nonlinear>
Presolving Time: 0.39

 time | node  | left  |LP iter|LP it/n|mem/heur|mdpt |vars |cons |rows |cuts |sepa|confs|strbr|  dualbound   | primalbound  |  gap   | compl. 
t 3.3s|     1 |     0 |  8418 |     - |  trysol|   0 |  12k|  12k|  12k|   0 |  0 |   0 |   0 |-9.294381e+04 | 2.464230e+05 |    Inf | unknown
 54.9s|     1 |     0 | 45418 |     - |   107M |   0 |  12k|  12k|  12k|   0 |  0 |   0 |   0 |-8.263973e+04 | 2.464230e+05 |    Inf | unknown
t77.0s|     1 |     0 | 63289 |     - |  trysol|   0 |  12k|  12k|  12k|   0 |  0 |   0 |   0 |-8.263973e+04 | 8.362200e+04 |    Inf | unknown
 92.6s|     1 |     0 | 74565 |     - |   111M |   0 |  12k|  12k|  12k|  16 |  1 |   0 |   0 |-7.826290e+04 | 8.362200e+04 |    Inf | unknown
t93.8s|     1 |     0 | 74565 |     - |  trysol|   0 |  12k|  12k|  12k|  16 |  1 |   0 |   0 |-7.826290e+04 | 8.117766e+04 |    Inf | unknown
 93.8s|     1 |     0 | 74565 |     - |   112M |   0 |  12k|  12k|  12k|  16 |  1 |   0 |   0 |-7.826290e+04 | 8.117766e+04 |    Inf | unknown
  107s|     1 |     0 | 84730 |     - |   113M |   0 |  12k|  12k|  13k|  31 |  2 |   0 |   0 |-7.453882e+04 | 8.117766e+04 |    Inf | unknown
  112s|     1 |     0 | 88200 |     - |   114M |   0 |  12k|  12k|  13k|  46 |  3 |   0 |   0 |-7.393282e+04 | 8.117766e+04 |    Inf | unknown
r 113s|     1 |     0 | 88200 |     - |simplero|   0 |  12k|  12k|  13k|  46 |  3 |   0 |   0 |-7.393282e+04 | 5.120526e+04 |    Inf | unknown
  116s|     1 |     0 | 90436 |     - |   116M |   0 |  12k|  12k|  13k|  64 |  4 |   0 |   0 |-7.378475e+04 | 5.120526e+04 |    Inf | unknown
  116s|     1 |     0 | 90436 |     - |   116M |   0 |  12k|  12k|  13k|  64 |  4 |   0 |   0 |-7.378475e+04 | 5.120526e+04 |    Inf | unknown
  121s|     1 |     0 | 94387 |     - |   117M |   0 |  12k|  12k|  13k|  77 |  5 |   0 |   0 |-7.373162e+04 | 5.120526e+04 |    Inf | unknown
  125s|     1 |     0 | 97743 |     - |   119M |   0 |  12k|  12k|  13k|  90 |  6 |   0 |   0 |-7.368868e+04 | 5.120526e+04 |    Inf | unknown
  128s|     1 |     0 | 99304 |     - |   120M |   0 |  12k|  12k|  13k| 100 |  7 |   0 |   0 |-7.367796e+04 | 5.120526e+04 |    Inf | unknown
  131s|     1 |     0 |101552 |     - |   121M |   0 |  12k|  12k|  13k| 116 |  8 |   0 |   0 |-7.366927e+04 | 5.120526e+04 |    Inf | unknown
 time | node  | left  |LP iter|LP it/n|mem/heur|mdpt |vars |cons |rows |cuts |sepa|confs|strbr|  dualbound   | primalbound  |  gap   | compl. 
  133s|     1 |     0 |103329 |     - |   123M |   0 |  12k|  12k|  13k| 133 |  9 |   0 |   0 |-7.365804e+04 | 5.120526e+04 |    Inf | unknown
  135s|     1 |     0 |104222 |     - |   124M |   0 |  12k|  12k|  13k| 146 | 10 |   0 |   0 |-7.365506e+04 | 5.120526e+04 |    Inf | unknown
  136s|     1 |     0 |104680 |     - |   126M |   0 |  12k|  12k|  13k| 159 | 11 |   0 |   0 |-7.365356e+04 | 5.120526e+04 |    Inf | unknown
  137s|     1 |     0 |105259 |     - |   127M |   0 |  12k|  12k|  13k| 167 | 12 |   0 |   0 |-7.365117e+04 | 5.120526e+04 |    Inf | unknown
  139s|     1 |     0 |106390 |     - |   128M |   0 |  12k|  12k|  13k| 176 | 13 |   0 |   0 |-7.364680e+04 | 5.120526e+04 |    Inf | unknown
  140s|     1 |     0 |106989 |     - |   130M |   0 |  12k|  12k|  13k| 185 | 14 |   0 |   0 |-7.364416e+04 | 5.120526e+04 |    Inf | unknown
  140s|     1 |     0 |107204 |     - |   131M |   0 |  12k|  12k|  13k| 194 | 15 |   0 |   0 |-7.364332e+04 | 5.120526e+04 |    Inf | unknown
  141s|     1 |     0 |107352 |     - |   132M |   0 |  12k|  12k|  13k| 203 | 16 |   0 |   0 |-7.364291e+04 | 5.120526e+04 |    Inf | unknown
  142s|     1 |     0 |108084 |     - |   132M |   0 |  12k|  12k|  13k| 215 | 17 |   0 |   0 |-7.363878e+04 | 5.120526e+04 |    Inf | unknown
  144s|     1 |     0 |108765 |     - |   134M |   0 |  12k|  12k|  13k| 227 | 18 |   0 |   0 |-7.363662e+04 | 5.120526e+04 |    Inf | unknown
  144s|     1 |     0 |108856 |     - |   135M |   0 |  12k|  12k|  13k| 234 | 19 |   0 |   0 |-7.363657e+04 | 5.120526e+04 |    Inf | unknown
  144s|     1 |     0 |108999 |     - |   135M |   0 |  12k|  12k|  13k| 240 | 20 |   0 |   0 |-7.363567e+04 | 5.120526e+04 |    Inf | unknown
  147s|     1 |     0 |113627 |     - |   136M |   0 |  12k|  12k|  13k| 240 | 20 |   0 |   0 |-6.419549e+04 | 5.120526e+04 |    Inf | unknown
  161s|     1 |     0 |124998 |     - |   138M |   0 |  12k|  12k|  13k| 251 | 21 |   0 |   0 |-6.280245e+04 | 5.120526e+04 |    Inf | unknown
  169s|     1 |     0 |130803 |     - |   138M |   0 |  12k|  12k|  13k| 272 | 22 |   0 |   0 |-6.223304e+04 | 5.120526e+04 |    Inf | unknown
 time | node  | left  |LP iter|LP it/n|mem/heur|mdpt |vars |cons |rows |cuts |sepa|confs|strbr|  dualbound   | primalbound  |  gap   | compl. 
  176s|     1 |     0 |136122 |     - |   138M |   0 |  12k|  12k|  13k| 284 | 23 |   0 |   0 |-6.183916e+04 | 5.120526e+04 |    Inf | unknown
  178s|     1 |     0 |137919 |     - |   138M |   0 |  12k|  12k|  13k| 296 | 24 |   0 |   0 |-6.158994e+04 | 5.120526e+04 |    Inf | unknown
  180s|     1 |     0 |139047 |     - |   138M |   0 |  12k|  12k|  13k| 306 | 25 |   0 |   0 |-6.152522e+04 | 5.120526e+04 |    Inf | unknown
  181s|     1 |     0 |139629 |     - |   138M |   0 |  12k|  12k|  13k| 315 | 26 |   0 |   0 |-6.151150e+04 | 5.120526e+04 |    Inf | unknown
  182s|     1 |     0 |140188 |     - |   138M |   0 |  12k|  12k|  13k| 326 | 27 |   0 |   0 |-6.150646e+04 | 5.120526e+04 |    Inf | unknown
  183s|     1 |     0 |140411 |     - |   139M |   0 |  12k|  12k|  13k| 333 | 28 |   0 |   0 |-6.150597e+04 | 5.120526e+04 |    Inf | unknown
  183s|     1 |     0 |140611 |     - |   139M |   0 |  12k|  12k|  13k| 340 | 29 |   0 |   0 |-6.150550e+04 | 5.120526e+04 |    Inf | unknown
  184s|     1 |     0 |140734 |     - |   139M |   0 |  12k|  12k|  13k| 348 | 30 |   0 |   0 |-6.150531e+04 | 5.120526e+04 |    Inf | unknown
  184s|     1 |     0 |140997 |     - |   139M |   0 |  12k|  12k|  13k| 354 | 31 |   0 |   0 |-6.150511e+04 | 5.120526e+04 |    Inf | unknown
  185s|     1 |     0 |141337 |     - |   139M |   0 |  12k|  12k|  13k| 360 | 32 |   0 |   0 |-6.150433e+04 | 5.120526e+04 |    Inf | unknown
  185s|     1 |     0 |141450 |     - |   139M |   0 |  12k|  12k|  13k| 367 | 33 |   0 |   0 |-6.150422e+04 | 5.120526e+04 |    Inf | unknown
  187s|     1 |     0 |142285 |     - |   139M |   0 |  12k|  12k|  13k| 375 | 34 |   0 |   0 |-6.150261e+04 | 5.120526e+04 |    Inf | unknown
  188s|     1 |     0 |142500 |     - |   139M |   0 |  12k|  12k|  13k| 385 | 35 |   0 |   0 |-6.150221e+04 | 5.120526e+04 |    Inf | unknown
  188s|     1 |     0 |142697 |     - |   139M |   0 |  12k|  12k|  13k| 391 | 36 |   0 |   0 |-6.150187e+04 | 5.120526e+04 |    Inf | unknown
L3600s|     1 |     0 |315665 |     - |    rens|   0 |  12k|  12k|  13k| 391 | 36 |  32 |   0 |-6.150187e+04 | 4.569221e+04 |    Inf | unknown

SCIP Status        : solving was interrupted [time limit reached]
Solving Time (sec) : 3600.12
Solving Nodes      : 1
Primal Bound       : +4.56922067191760e+04 (5 solutions)
Dual Bound         : -6.15018724690127e+04
Gap                : infinite
primal_bound = 45692.206719176, dual_bound = -61501.872469012706, gap = 174.29400908435383, time = 3603.32
